predicate globalCardinalityChoco(array [int] of var int: x,array [int] of int: cover,array [int] of var int: counts,bool: closed);
predicate alldifferentChoco(array [int] of var int: x);
predicate atleastChoco(int: n,array [int] of var int: x,int: v);
predicate atmostChoco(int: n,array [int] of var int: x,int: v);
array [1..19] of int: X_INTRODUCED_96_ = [2,1,1,1,1,1,1,1,1,1,1,1,1,1,1,1,1,1,1];
array [1..19] of int: X_INTRODUCED_97_ = [0,1,2,3,4,5,6,7,8,9,10,11,12,13,14,15,16,17,18];
array [1..2] of int: X_INTRODUCED_118_ = [1,1];
array [1..361] of int: X_INTRODUCED_364_ = [0,0,0,0,0,0,0,0,0,0,0,0,0,0,0,0,0,0,0,0,0,0,114,114,160,160,127,127,127,172,172,176,176,132,199,199,197,183,0,0,0,114,114,160,160,127,127,127,172,172,176,176,132,199,199,197,183,0,153,153,0,0,123,123,114,114,114,138,138,198,198,147,170,170,195,171,0,153,153,0,0,123,123,114,114,114,138,138,198,198,147,170,170,195,171,0,115,115,183,183,0,0,147,147,147,189,189,111,111,135,198,198,185,138,0,115,115,183,183,0,0,147,147,147,189,189,111,111,135,198,198,185,138,0,106,106,159,159,185,185,0,0,0,134,134,164,164,122,166,166,151,104,0,106,106,159,159,185,185,0,0,0,134,134,164,164,122,166,166,151,104,0,106,106,159,159,185,185,0,0,0,134,134,164,164,122,166,166,151,104,0,135,135,122,122,166,166,110,110,110,0,0,100,100,118,130,130,166,199,0,135,135,122,122,166,166,110,110,110,0,0,100,100,118,130,130,166,199,0,116,116,116,116,114,114,150,150,150,138,138,0,0,188,114,114,124,126,0,116,116,116,116,114,114,150,150,150,138,138,0,0,188,114,114,124,126,0,152,152,124,124,125,125,119,119,119,136,136,118,118,0,169,169,199,123,0,101,101,161,161,171,171,177,177,177,111,111,147,147,180,0,0,110,101,0,101,101,161,161,171,171,177,177,177,111,111,147,147,180,0,0,110,101,0,142,142,186,186,156,156,167,167,167,191,191,122,122,137,180,180,0,123,0,182,182,181,181,132,132,181,181,181,138,138,195,195,165,110,110,123,0];
array [1..2] of int: X_INTRODUCED_404_ = [1,-1];
array [1..38] of int: X_INTRODUCED_411_ = [1,-1,-1,-1,-1,-1,-1,-1,-1,-1,-1,-1,-1,-1,-1,-1,-1,-1,-1,-1,-10,-10,-10,-10,-10,-10,-10,-10,-10,-10,-10,-10,-10,-10,-10,-10,-10,-10];
var 0..18: X_INTRODUCED_0_;
var 0..18: X_INTRODUCED_1_;
var 0..18: X_INTRODUCED_2_;
var 0..18: X_INTRODUCED_3_;
var {0,2,3,4,5,6,7,8,9,10,11,12,13,14,16,17,18}: X_INTRODUCED_4_;
var {0,2,4,6,7,8,9,10,11,12,13,14,16,17,18}: X_INTRODUCED_5_;
var {0,2,4,6,8,9,10,11,13,14,16,17,18}: X_INTRODUCED_6_;
var {0,2,4,6,8,9,10,11,13,14,16,17,18}: X_INTRODUCED_7_;
var {0,2,4,6,8,9,11,13,14,16,17,18}: X_INTRODUCED_8_;
var {0,2,4,6,8,9,11,13,16,17,18}: X_INTRODUCED_9_;
var {0,2,4,6,8,9,11,13,16,18}: X_INTRODUCED_10_;
var {0,2,4,6,8,9,11,13,16,18}: X_INTRODUCED_11_;
var {0,2,4,6,8,9,11,13,16,18}: X_INTRODUCED_12_;
var {0,2,4,6,8,9,11,13,16,18}: X_INTRODUCED_13_;
var {0,2,4,6,8,9,11,13,16,18}: X_INTRODUCED_14_;
var {0,2,4,6,8,9,11,13,16,18}: X_INTRODUCED_15_;
var {0,2,4,6,8,9,13,16,18}: X_INTRODUCED_16_;
var {0,4,6,9,13,16,18}: X_INTRODUCED_17_;
var {0,4,9,16,18}: X_INTRODUCED_18_;
var {0,16}: X_INTRODUCED_19_;
var 1..20: X_INTRODUCED_20_;
var 1..20: X_INTRODUCED_21_;
var 1..20: X_INTRODUCED_22_;
var 1..20: X_INTRODUCED_23_;
var 1..20: X_INTRODUCED_24_;
var 1..20: X_INTRODUCED_25_;
var 1..20: X_INTRODUCED_26_;
var 1..20: X_INTRODUCED_27_;
var 1..20: X_INTRODUCED_28_;
var 1..20: X_INTRODUCED_29_;
var 1..20: X_INTRODUCED_30_;
var 1..20: X_INTRODUCED_31_;
var 1..20: X_INTRODUCED_32_;
var 1..20: X_INTRODUCED_33_;
var 1..20: X_INTRODUCED_34_;
var 1..20: X_INTRODUCED_35_;
var 1..20: X_INTRODUCED_36_;
var 1..20: X_INTRODUCED_37_;
var 0..3: X_INTRODUCED_38_:: is_defined_var;
var 0..16: X_INTRODUCED_39_:: is_defined_var;
var 0..4: X_INTRODUCED_40_:: is_defined_var;
var 0..18: X_INTRODUCED_41_:: is_defined_var;
var 0..4: X_INTRODUCED_42_:: is_defined_var;
var 0..17: X_INTRODUCED_43_:: is_defined_var;
var 0..5: X_INTRODUCED_44_:: is_defined_var;
var 0..16: X_INTRODUCED_45_:: is_defined_var;
var 0..18: X_INTRODUCED_46_:: is_defined_var;
var 0..7: X_INTRODUCED_47_:: is_defined_var;
var 0..15: X_INTRODUCED_48_:: is_defined_var;
var 0..5: X_INTRODUCED_49_:: is_defined_var;
var 0..17: X_INTRODUCED_50_:: is_defined_var;
var 0..8: X_INTRODUCED_51_:: is_defined_var;
var 0..3: X_INTRODUCED_52_:: is_defined_var;
var 0..19: X_INTRODUCED_53_:: is_defined_var;
var 0..9: X_INTRODUCED_54_:: is_defined_var;
var 0..18: X_INTRODUCED_55_:: is_defined_var;
var 0..18: X_INTRODUCED_76_;
var 0..18: X_INTRODUCED_77_;
var 0..18: X_INTRODUCED_78_;
var 0..18: X_INTRODUCED_79_;
var 0..18: X_INTRODUCED_80_;
var 0..18: X_INTRODUCED_81_;
var 0..18: X_INTRODUCED_82_;
var 0..18: X_INTRODUCED_83_;
var 0..18: X_INTRODUCED_84_;
var 0..18: X_INTRODUCED_85_;
var 0..18: X_INTRODUCED_86_;
var 0..18: X_INTRODUCED_87_;
var 0..18: X_INTRODUCED_88_;
var 0..18: X_INTRODUCED_89_;
var 0..18: X_INTRODUCED_90_;
var 0..18: X_INTRODUCED_91_;
var 0..18: X_INTRODUCED_92_;
var 0..18: X_INTRODUCED_93_;
var 0..18: X_INTRODUCED_94_;
var 0..5801: objective:: output_var:: is_defined_var;
var bool: X_INTRODUCED_136_ ::var_is_introduced :: is_defined_var;
var bool: X_INTRODUCED_137_ ::var_is_introduced :: is_defined_var;
var bool: X_INTRODUCED_138_ ::var_is_introduced :: is_defined_var;
var bool: X_INTRODUCED_148_ ::var_is_introduced :: is_defined_var;
var bool: X_INTRODUCED_149_ ::var_is_introduced :: is_defined_var;
var bool: X_INTRODUCED_150_ ::var_is_introduced :: is_defined_var;
var bool: X_INTRODUCED_160_ ::var_is_introduced :: is_defined_var;
var bool: X_INTRODUCED_161_ ::var_is_introduced :: is_defined_var;
var bool: X_INTRODUCED_162_ ::var_is_introduced :: is_defined_var;
var bool: X_INTRODUCED_172_ ::var_is_introduced :: is_defined_var;
var bool: X_INTRODUCED_173_ ::var_is_introduced :: is_defined_var;
var bool: X_INTRODUCED_174_ ::var_is_introduced :: is_defined_var;
var bool: X_INTRODUCED_184_ ::var_is_introduced :: is_defined_var;
var bool: X_INTRODUCED_185_ ::var_is_introduced :: is_defined_var;
var bool: X_INTRODUCED_186_ ::var_is_introduced :: is_defined_var;
var bool: X_INTRODUCED_196_ ::var_is_introduced :: is_defined_var;
var bool: X_INTRODUCED_197_ ::var_is_introduced :: is_defined_var;
var bool: X_INTRODUCED_198_ ::var_is_introduced :: is_defined_var;
var bool: X_INTRODUCED_208_ ::var_is_introduced :: is_defined_var;
var bool: X_INTRODUCED_209_ ::var_is_introduced :: is_defined_var;
var bool: X_INTRODUCED_210_ ::var_is_introduced :: is_defined_var;
var bool: X_INTRODUCED_220_ ::var_is_introduced :: is_defined_var;
var bool: X_INTRODUCED_221_ ::var_is_introduced :: is_defined_var;
var bool: X_INTRODUCED_222_ ::var_is_introduced :: is_defined_var;
var bool: X_INTRODUCED_232_ ::var_is_introduced :: is_defined_var;
var bool: X_INTRODUCED_233_ ::var_is_introduced :: is_defined_var;
var bool: X_INTRODUCED_234_ ::var_is_introduced :: is_defined_var;
var bool: X_INTRODUCED_244_ ::var_is_introduced :: is_defined_var;
var bool: X_INTRODUCED_245_ ::var_is_introduced :: is_defined_var;
var bool: X_INTRODUCED_246_ ::var_is_introduced :: is_defined_var;
var bool: X_INTRODUCED_256_ ::var_is_introduced :: is_defined_var;
var bool: X_INTRODUCED_257_ ::var_is_introduced :: is_defined_var;
var bool: X_INTRODUCED_258_ ::var_is_introduced :: is_defined_var;
var bool: X_INTRODUCED_268_ ::var_is_introduced :: is_defined_var;
var bool: X_INTRODUCED_269_ ::var_is_introduced :: is_defined_var;
var bool: X_INTRODUCED_270_ ::var_is_introduced :: is_defined_var;
var bool: X_INTRODUCED_280_ ::var_is_introduced :: is_defined_var;
var bool: X_INTRODUCED_281_ ::var_is_introduced :: is_defined_var;
var bool: X_INTRODUCED_282_ ::var_is_introduced :: is_defined_var;
var bool: X_INTRODUCED_292_ ::var_is_introduced :: is_defined_var;
var bool: X_INTRODUCED_293_ ::var_is_introduced :: is_defined_var;
var bool: X_INTRODUCED_294_ ::var_is_introduced :: is_defined_var;
var bool: X_INTRODUCED_304_ ::var_is_introduced :: is_defined_var;
var bool: X_INTRODUCED_305_ ::var_is_introduced :: is_defined_var;
var bool: X_INTRODUCED_306_ ::var_is_introduced :: is_defined_var;
var bool: X_INTRODUCED_316_ ::var_is_introduced :: is_defined_var;
var bool: X_INTRODUCED_317_ ::var_is_introduced :: is_defined_var;
var bool: X_INTRODUCED_318_ ::var_is_introduced :: is_defined_var;
var bool: X_INTRODUCED_328_ ::var_is_introduced :: is_defined_var;
var bool: X_INTRODUCED_329_ ::var_is_introduced :: is_defined_var;
var bool: X_INTRODUCED_330_ ::var_is_introduced :: is_defined_var;
var bool: X_INTRODUCED_340_ ::var_is_introduced :: is_defined_var;
var bool: X_INTRODUCED_341_ ::var_is_introduced :: is_defined_var;
var bool: X_INTRODUCED_342_ ::var_is_introduced :: is_defined_var;
var bool: X_INTRODUCED_352_ ::var_is_introduced :: is_defined_var;
var bool: X_INTRODUCED_353_ ::var_is_introduced :: is_defined_var;
var bool: X_INTRODUCED_354_ ::var_is_introduced :: is_defined_var;
var 1..361: X_INTRODUCED_366_ ::var_is_introduced :: is_defined_var;
var 0..199: X_INTRODUCED_367_ ::var_is_introduced :: is_defined_var;
var 1..361: X_INTRODUCED_368_ ::var_is_introduced :: is_defined_var;
var 0..199: X_INTRODUCED_369_ ::var_is_introduced :: is_defined_var;
var 1..361: X_INTRODUCED_370_ ::var_is_introduced :: is_defined_var;
var 0..199: X_INTRODUCED_371_ ::var_is_introduced :: is_defined_var;
var 1..361: X_INTRODUCED_372_ ::var_is_introduced :: is_defined_var;
var 0..199: X_INTRODUCED_373_ ::var_is_introduced :: is_defined_var;
var 1..361: X_INTRODUCED_374_ ::var_is_introduced :: is_defined_var;
var 0..199: X_INTRODUCED_375_ ::var_is_introduced :: is_defined_var;
var 1..361: X_INTRODUCED_376_ ::var_is_introduced :: is_defined_var;
var 0..199: X_INTRODUCED_377_ ::var_is_introduced :: is_defined_var;
var 1..361: X_INTRODUCED_378_ ::var_is_introduced :: is_defined_var;
var 0..199: X_INTRODUCED_379_ ::var_is_introduced :: is_defined_var;
var 1..361: X_INTRODUCED_380_ ::var_is_introduced :: is_defined_var;
var 0..199: X_INTRODUCED_381_ ::var_is_introduced :: is_defined_var;
var 1..361: X_INTRODUCED_382_ ::var_is_introduced :: is_defined_var;
var 0..199: X_INTRODUCED_383_ ::var_is_introduced :: is_defined_var;
var 1..361: X_INTRODUCED_384_ ::var_is_introduced :: is_defined_var;
var 0..199: X_INTRODUCED_385_ ::var_is_introduced :: is_defined_var;
var 1..361: X_INTRODUCED_386_ ::var_is_introduced :: is_defined_var;
var 0..199: X_INTRODUCED_387_ ::var_is_introduced :: is_defined_var;
var 1..361: X_INTRODUCED_388_ ::var_is_introduced :: is_defined_var;
var 0..199: X_INTRODUCED_389_ ::var_is_introduced :: is_defined_var;
var 1..361: X_INTRODUCED_390_ ::var_is_introduced :: is_defined_var;
var 0..199: X_INTRODUCED_391_ ::var_is_introduced :: is_defined_var;
var 1..361: X_INTRODUCED_392_ ::var_is_introduced :: is_defined_var;
var 0..199: X_INTRODUCED_393_ ::var_is_introduced :: is_defined_var;
var 1..361: X_INTRODUCED_394_ ::var_is_introduced :: is_defined_var;
var 0..199: X_INTRODUCED_395_ ::var_is_introduced :: is_defined_var;
var 1..361: X_INTRODUCED_396_ ::var_is_introduced :: is_defined_var;
var 0..199: X_INTRODUCED_397_ ::var_is_introduced :: is_defined_var;
var 1..361: X_INTRODUCED_398_ ::var_is_introduced :: is_defined_var;
var 0..199: X_INTRODUCED_399_ ::var_is_introduced :: is_defined_var;
var 1..361: X_INTRODUCED_400_ ::var_is_introduced :: is_defined_var;
var 0..199: X_INTRODUCED_401_ ::var_is_introduced :: is_defined_var;
var 1..361: X_INTRODUCED_402_ ::var_is_introduced :: is_defined_var;
var 0..199: X_INTRODUCED_403_ ::var_is_introduced :: is_defined_var;
array [1..20] of var int: production_by_order:: output_array([1..20]) = [X_INTRODUCED_0_,X_INTRODUCED_1_,X_INTRODUCED_2_,X_INTRODUCED_3_,X_INTRODUCED_4_,X_INTRODUCED_5_,X_INTRODUCED_6_,X_INTRODUCED_7_,X_INTRODUCED_8_,X_INTRODUCED_9_,X_INTRODUCED_10_,X_INTRODUCED_11_,X_INTRODUCED_12_,X_INTRODUCED_13_,X_INTRODUCED_14_,X_INTRODUCED_15_,X_INTRODUCED_16_,X_INTRODUCED_17_,X_INTRODUCED_18_,X_INTRODUCED_19_];
array [1..18] of var int: production_period = [X_INTRODUCED_20_,X_INTRODUCED_21_,X_INTRODUCED_22_,X_INTRODUCED_23_,X_INTRODUCED_24_,X_INTRODUCED_25_,X_INTRODUCED_26_,X_INTRODUCED_27_,X_INTRODUCED_28_,X_INTRODUCED_29_,X_INTRODUCED_30_,X_INTRODUCED_31_,X_INTRODUCED_32_,X_INTRODUCED_33_,X_INTRODUCED_34_,X_INTRODUCED_35_,X_INTRODUCED_36_,X_INTRODUCED_37_];
array [1..18] of var int: inventory_periods:: output_array([1..18]) = [X_INTRODUCED_38_,X_INTRODUCED_39_,X_INTRODUCED_40_,X_INTRODUCED_41_,X_INTRODUCED_42_,X_INTRODUCED_43_,X_INTRODUCED_44_,X_INTRODUCED_45_,X_INTRODUCED_46_,X_INTRODUCED_47_,X_INTRODUCED_48_,X_INTRODUCED_49_,X_INTRODUCED_50_,X_INTRODUCED_51_,X_INTRODUCED_52_,X_INTRODUCED_53_,X_INTRODUCED_54_,X_INTRODUCED_55_];
array [1..20] of var int: production_order = [X_INTRODUCED_0_,X_INTRODUCED_76_,X_INTRODUCED_77_,X_INTRODUCED_78_,X_INTRODUCED_79_,X_INTRODUCED_80_,X_INTRODUCED_81_,X_INTRODUCED_82_,X_INTRODUCED_83_,X_INTRODUCED_84_,X_INTRODUCED_85_,X_INTRODUCED_86_,X_INTRODUCED_87_,X_INTRODUCED_88_,X_INTRODUCED_89_,X_INTRODUCED_90_,X_INTRODUCED_91_,X_INTRODUCED_92_,X_INTRODUCED_93_,X_INTRODUCED_94_];
array [1..38] of var int: X_INTRODUCED_410_ ::var_is_introduced  = [objective,X_INTRODUCED_367_,X_INTRODUCED_369_,X_INTRODUCED_371_,X_INTRODUCED_373_,X_INTRODUCED_375_,X_INTRODUCED_377_,X_INTRODUCED_379_,X_INTRODUCED_381_,X_INTRODUCED_383_,X_INTRODUCED_385_,X_INTRODUCED_387_,X_INTRODUCED_389_,X_INTRODUCED_391_,X_INTRODUCED_393_,X_INTRODUCED_395_,X_INTRODUCED_397_,X_INTRODUCED_399_,X_INTRODUCED_401_,X_INTRODUCED_403_,X_INTRODUCED_38_,X_INTRODUCED_39_,X_INTRODUCED_40_,X_INTRODUCED_41_,X_INTRODUCED_42_,X_INTRODUCED_43_,X_INTRODUCED_44_,X_INTRODUCED_45_,X_INTRODUCED_46_,X_INTRODUCED_47_,X_INTRODUCED_48_,X_INTRODUCED_49_,X_INTRODUCED_50_,X_INTRODUCED_51_,X_INTRODUCED_52_,X_INTRODUCED_53_,X_INTRODUCED_54_,X_INTRODUCED_55_];
constraint globalCardinalityChoco(production_by_order,X_INTRODUCED_97_,X_INTRODUCED_96_,false);
constraint array_var_int_element(X_INTRODUCED_20_,production_by_order,1);
constraint array_var_int_element(X_INTRODUCED_21_,production_by_order,2);
constraint array_var_int_element(X_INTRODUCED_22_,production_by_order,3);
constraint array_var_int_element(X_INTRODUCED_23_,production_by_order,4);
constraint array_var_int_element(X_INTRODUCED_24_,production_by_order,5);
constraint array_var_int_element(X_INTRODUCED_25_,production_by_order,6);
constraint array_var_int_element(X_INTRODUCED_26_,production_by_order,7);
constraint array_var_int_element(X_INTRODUCED_27_,production_by_order,8);
constraint array_var_int_element(X_INTRODUCED_28_,production_by_order,9);
constraint array_var_int_element(X_INTRODUCED_29_,production_by_order,10);
constraint array_var_int_element(X_INTRODUCED_30_,production_by_order,11);
constraint array_var_int_element(X_INTRODUCED_31_,production_by_order,12);
constraint array_var_int_element(X_INTRODUCED_32_,production_by_order,13);
constraint array_var_int_element(X_INTRODUCED_33_,production_by_order,14);
constraint array_var_int_element(X_INTRODUCED_34_,production_by_order,15);
constraint array_var_int_element(X_INTRODUCED_35_,production_by_order,16);
constraint array_var_int_element(X_INTRODUCED_36_,production_by_order,17);
constraint array_var_int_element(X_INTRODUCED_37_,production_by_order,18);
constraint alldifferentChoco(production_period);
constraint int_lin_eq(X_INTRODUCED_118_,[X_INTRODUCED_38_,X_INTRODUCED_20_],4):: defines_var(X_INTRODUCED_38_);
constraint int_lin_eq(X_INTRODUCED_118_,[X_INTRODUCED_39_,X_INTRODUCED_21_],17):: defines_var(X_INTRODUCED_39_);
constraint int_lin_eq(X_INTRODUCED_118_,[X_INTRODUCED_40_,X_INTRODUCED_22_],5):: defines_var(X_INTRODUCED_40_);
constraint int_lin_eq(X_INTRODUCED_118_,[X_INTRODUCED_41_,X_INTRODUCED_23_],19):: defines_var(X_INTRODUCED_41_);
constraint int_lin_eq(X_INTRODUCED_118_,[X_INTRODUCED_42_,X_INTRODUCED_24_],5):: defines_var(X_INTRODUCED_42_);
constraint int_lin_eq(X_INTRODUCED_118_,[X_INTRODUCED_43_,X_INTRODUCED_25_],18):: defines_var(X_INTRODUCED_43_);
constraint int_lin_eq(X_INTRODUCED_118_,[X_INTRODUCED_44_,X_INTRODUCED_26_],6):: defines_var(X_INTRODUCED_44_);
constraint int_lin_eq(X_INTRODUCED_118_,[X_INTRODUCED_45_,X_INTRODUCED_27_],17):: defines_var(X_INTRODUCED_45_);
constraint int_lin_eq(X_INTRODUCED_118_,[X_INTRODUCED_46_,X_INTRODUCED_28_],19):: defines_var(X_INTRODUCED_46_);
constraint int_lin_eq(X_INTRODUCED_118_,[X_INTRODUCED_47_,X_INTRODUCED_29_],8):: defines_var(X_INTRODUCED_47_);
constraint int_lin_eq(X_INTRODUCED_118_,[X_INTRODUCED_48_,X_INTRODUCED_30_],16):: defines_var(X_INTRODUCED_48_);
constraint int_lin_eq(X_INTRODUCED_118_,[X_INTRODUCED_49_,X_INTRODUCED_31_],6):: defines_var(X_INTRODUCED_49_);
constraint int_lin_eq(X_INTRODUCED_118_,[X_INTRODUCED_50_,X_INTRODUCED_32_],18):: defines_var(X_INTRODUCED_50_);
constraint int_lin_eq(X_INTRODUCED_118_,[X_INTRODUCED_51_,X_INTRODUCED_33_],9):: defines_var(X_INTRODUCED_51_);
constraint int_lin_eq(X_INTRODUCED_118_,[X_INTRODUCED_52_,X_INTRODUCED_34_],4):: defines_var(X_INTRODUCED_52_);
constraint int_lin_eq(X_INTRODUCED_118_,[X_INTRODUCED_53_,X_INTRODUCED_35_],20):: defines_var(X_INTRODUCED_53_);
constraint int_lin_eq(X_INTRODUCED_118_,[X_INTRODUCED_54_,X_INTRODUCED_36_],10):: defines_var(X_INTRODUCED_54_);
constraint int_lin_eq(X_INTRODUCED_118_,[X_INTRODUCED_55_,X_INTRODUCED_37_],19):: defines_var(X_INTRODUCED_55_);
constraint bool_clause([X_INTRODUCED_137_],[X_INTRODUCED_136_]);
constraint array_bool_or([X_INTRODUCED_136_,X_INTRODUCED_138_],true);
constraint bool_clause([X_INTRODUCED_149_],[X_INTRODUCED_148_]);
constraint array_bool_or([X_INTRODUCED_148_,X_INTRODUCED_150_],true);
constraint bool_clause([X_INTRODUCED_161_],[X_INTRODUCED_160_]);
constraint array_bool_or([X_INTRODUCED_160_,X_INTRODUCED_162_],true);
constraint bool_clause([X_INTRODUCED_173_],[X_INTRODUCED_172_]);
constraint array_bool_or([X_INTRODUCED_172_,X_INTRODUCED_174_],true);
constraint bool_clause([X_INTRODUCED_185_],[X_INTRODUCED_184_]);
constraint array_bool_or([X_INTRODUCED_184_,X_INTRODUCED_186_],true);
constraint bool_clause([X_INTRODUCED_197_],[X_INTRODUCED_196_]);
constraint array_bool_or([X_INTRODUCED_196_,X_INTRODUCED_198_],true);
constraint bool_clause([X_INTRODUCED_209_],[X_INTRODUCED_208_]);
constraint array_bool_or([X_INTRODUCED_208_,X_INTRODUCED_210_],true);
constraint bool_clause([X_INTRODUCED_221_],[X_INTRODUCED_220_]);
constraint array_bool_or([X_INTRODUCED_220_,X_INTRODUCED_222_],true);
constraint bool_clause([X_INTRODUCED_233_],[X_INTRODUCED_232_]);
constraint array_bool_or([X_INTRODUCED_232_,X_INTRODUCED_234_],true);
constraint bool_clause([X_INTRODUCED_245_],[X_INTRODUCED_244_]);
constraint array_bool_or([X_INTRODUCED_244_,X_INTRODUCED_246_],true);
constraint bool_clause([X_INTRODUCED_257_],[X_INTRODUCED_256_]);
constraint array_bool_or([X_INTRODUCED_256_,X_INTRODUCED_258_],true);
constraint bool_clause([X_INTRODUCED_269_],[X_INTRODUCED_268_]);
constraint array_bool_or([X_INTRODUCED_268_,X_INTRODUCED_270_],true);
constraint bool_clause([X_INTRODUCED_281_],[X_INTRODUCED_280_]);
constraint array_bool_or([X_INTRODUCED_280_,X_INTRODUCED_282_],true);
constraint bool_clause([X_INTRODUCED_293_],[X_INTRODUCED_292_]);
constraint array_bool_or([X_INTRODUCED_292_,X_INTRODUCED_294_],true);
constraint bool_clause([X_INTRODUCED_305_],[X_INTRODUCED_304_]);
constraint array_bool_or([X_INTRODUCED_304_,X_INTRODUCED_306_],true);
constraint bool_clause([X_INTRODUCED_317_],[X_INTRODUCED_316_]);
constraint array_bool_or([X_INTRODUCED_316_,X_INTRODUCED_318_],true);
constraint bool_clause([X_INTRODUCED_329_],[X_INTRODUCED_328_]);
constraint array_bool_or([X_INTRODUCED_328_,X_INTRODUCED_330_],true);
constraint bool_clause([X_INTRODUCED_341_],[X_INTRODUCED_340_]);
constraint array_bool_or([X_INTRODUCED_340_,X_INTRODUCED_342_],true);
constraint bool_clause([X_INTRODUCED_353_],[X_INTRODUCED_352_]);
constraint array_bool_or([X_INTRODUCED_352_,X_INTRODUCED_354_],true);
constraint atleastChoco(1,production_order,1);
constraint atmostChoco(3,production_order,1);
constraint atleastChoco(1,production_order,2);
constraint atmostChoco(3,production_order,2);
constraint atleastChoco(1,production_order,3);
constraint atmostChoco(3,production_order,3);
constraint atleastChoco(1,production_order,4);
constraint atmostChoco(3,production_order,4);
constraint atleastChoco(1,production_order,5);
constraint atmostChoco(3,production_order,5);
constraint atleastChoco(1,production_order,6);
constraint atmostChoco(3,production_order,6);
constraint atleastChoco(1,production_order,7);
constraint atmostChoco(3,production_order,7);
constraint atleastChoco(1,production_order,8);
constraint atmostChoco(3,production_order,8);
constraint atleastChoco(1,production_order,9);
constraint atmostChoco(3,production_order,9);
constraint atleastChoco(1,production_order,10);
constraint atmostChoco(3,production_order,10);
constraint atleastChoco(1,production_order,11);
constraint atmostChoco(3,production_order,11);
constraint atleastChoco(1,production_order,12);
constraint atmostChoco(3,production_order,12);
constraint atleastChoco(1,production_order,13);
constraint atmostChoco(3,production_order,13);
constraint atleastChoco(1,production_order,14);
constraint atmostChoco(3,production_order,14);
constraint atleastChoco(1,production_order,15);
constraint atmostChoco(3,production_order,15);
constraint atleastChoco(1,production_order,16);
constraint atmostChoco(3,production_order,16);
constraint atleastChoco(1,production_order,17);
constraint atmostChoco(3,production_order,17);
constraint atleastChoco(1,production_order,18);
constraint atmostChoco(3,production_order,18);
constraint array_int_element(X_INTRODUCED_366_,X_INTRODUCED_364_,X_INTRODUCED_367_):: defines_var(X_INTRODUCED_367_);
constraint array_int_element(X_INTRODUCED_368_,X_INTRODUCED_364_,X_INTRODUCED_369_):: defines_var(X_INTRODUCED_369_);
constraint array_int_element(X_INTRODUCED_370_,X_INTRODUCED_364_,X_INTRODUCED_371_):: defines_var(X_INTRODUCED_371_);
constraint array_int_element(X_INTRODUCED_372_,X_INTRODUCED_364_,X_INTRODUCED_373_):: defines_var(X_INTRODUCED_373_);
constraint array_int_element(X_INTRODUCED_374_,X_INTRODUCED_364_,X_INTRODUCED_375_):: defines_var(X_INTRODUCED_375_);
constraint array_int_element(X_INTRODUCED_376_,X_INTRODUCED_364_,X_INTRODUCED_377_):: defines_var(X_INTRODUCED_377_);
constraint array_int_element(X_INTRODUCED_378_,X_INTRODUCED_364_,X_INTRODUCED_379_):: defines_var(X_INTRODUCED_379_);
constraint array_int_element(X_INTRODUCED_380_,X_INTRODUCED_364_,X_INTRODUCED_381_):: defines_var(X_INTRODUCED_381_);
constraint array_int_element(X_INTRODUCED_382_,X_INTRODUCED_364_,X_INTRODUCED_383_):: defines_var(X_INTRODUCED_383_);
constraint array_int_element(X_INTRODUCED_384_,X_INTRODUCED_364_,X_INTRODUCED_385_):: defines_var(X_INTRODUCED_385_);
constraint array_int_element(X_INTRODUCED_386_,X_INTRODUCED_364_,X_INTRODUCED_387_):: defines_var(X_INTRODUCED_387_);
constraint array_int_element(X_INTRODUCED_388_,X_INTRODUCED_364_,X_INTRODUCED_389_):: defines_var(X_INTRODUCED_389_);
constraint array_int_element(X_INTRODUCED_390_,X_INTRODUCED_364_,X_INTRODUCED_391_):: defines_var(X_INTRODUCED_391_);
constraint array_int_element(X_INTRODUCED_392_,X_INTRODUCED_364_,X_INTRODUCED_393_):: defines_var(X_INTRODUCED_393_);
constraint array_int_element(X_INTRODUCED_394_,X_INTRODUCED_364_,X_INTRODUCED_395_):: defines_var(X_INTRODUCED_395_);
constraint array_int_element(X_INTRODUCED_396_,X_INTRODUCED_364_,X_INTRODUCED_397_):: defines_var(X_INTRODUCED_397_);
constraint array_int_element(X_INTRODUCED_398_,X_INTRODUCED_364_,X_INTRODUCED_399_):: defines_var(X_INTRODUCED_399_);
constraint array_int_element(X_INTRODUCED_400_,X_INTRODUCED_364_,X_INTRODUCED_401_):: defines_var(X_INTRODUCED_401_);
constraint array_int_element(X_INTRODUCED_402_,X_INTRODUCED_364_,X_INTRODUCED_403_):: defines_var(X_INTRODUCED_403_);
constraint int_lin_le(X_INTRODUCED_404_,[X_INTRODUCED_20_,X_INTRODUCED_21_],-1);
constraint int_lin_le(X_INTRODUCED_404_,[X_INTRODUCED_22_,X_INTRODUCED_23_],-1);
constraint int_lin_le(X_INTRODUCED_404_,[X_INTRODUCED_24_,X_INTRODUCED_25_],-1);
constraint int_lin_le(X_INTRODUCED_404_,[X_INTRODUCED_26_,X_INTRODUCED_27_],-1);
constraint int_lin_le(X_INTRODUCED_404_,[X_INTRODUCED_27_,X_INTRODUCED_28_],-1);
constraint int_lin_le(X_INTRODUCED_404_,[X_INTRODUCED_29_,X_INTRODUCED_30_],-1);
constraint int_lin_le(X_INTRODUCED_404_,[X_INTRODUCED_31_,X_INTRODUCED_32_],-1);
constraint int_lin_le(X_INTRODUCED_404_,[X_INTRODUCED_34_,X_INTRODUCED_35_],-1);
constraint int_lin_eq(X_INTRODUCED_411_,X_INTRODUCED_410_,0):: defines_var(objective);
constraint int_eq_reif(X_INTRODUCED_1_,0,X_INTRODUCED_136_):: defines_var(X_INTRODUCED_136_);
constraint int_eq_reif(X_INTRODUCED_76_,X_INTRODUCED_0_,X_INTRODUCED_137_):: defines_var(X_INTRODUCED_137_);
constraint int_eq_reif(X_INTRODUCED_76_,X_INTRODUCED_1_,X_INTRODUCED_138_):: defines_var(X_INTRODUCED_138_);
constraint int_eq_reif(X_INTRODUCED_2_,0,X_INTRODUCED_148_):: defines_var(X_INTRODUCED_148_);
constraint int_eq_reif(X_INTRODUCED_77_,X_INTRODUCED_76_,X_INTRODUCED_149_):: defines_var(X_INTRODUCED_149_);
constraint int_eq_reif(X_INTRODUCED_77_,X_INTRODUCED_2_,X_INTRODUCED_150_):: defines_var(X_INTRODUCED_150_);
constraint int_eq_reif(X_INTRODUCED_3_,0,X_INTRODUCED_160_):: defines_var(X_INTRODUCED_160_);
constraint int_eq_reif(X_INTRODUCED_78_,X_INTRODUCED_77_,X_INTRODUCED_161_):: defines_var(X_INTRODUCED_161_);
constraint int_eq_reif(X_INTRODUCED_78_,X_INTRODUCED_3_,X_INTRODUCED_162_):: defines_var(X_INTRODUCED_162_);
constraint int_eq_reif(X_INTRODUCED_4_,0,X_INTRODUCED_172_):: defines_var(X_INTRODUCED_172_);
constraint int_eq_reif(X_INTRODUCED_79_,X_INTRODUCED_78_,X_INTRODUCED_173_):: defines_var(X_INTRODUCED_173_);
constraint int_eq_reif(X_INTRODUCED_79_,X_INTRODUCED_4_,X_INTRODUCED_174_):: defines_var(X_INTRODUCED_174_);
constraint int_eq_reif(X_INTRODUCED_5_,0,X_INTRODUCED_184_):: defines_var(X_INTRODUCED_184_);
constraint int_eq_reif(X_INTRODUCED_80_,X_INTRODUCED_79_,X_INTRODUCED_185_):: defines_var(X_INTRODUCED_185_);
constraint int_eq_reif(X_INTRODUCED_80_,X_INTRODUCED_5_,X_INTRODUCED_186_):: defines_var(X_INTRODUCED_186_);
constraint int_eq_reif(X_INTRODUCED_6_,0,X_INTRODUCED_196_):: defines_var(X_INTRODUCED_196_);
constraint int_eq_reif(X_INTRODUCED_81_,X_INTRODUCED_80_,X_INTRODUCED_197_):: defines_var(X_INTRODUCED_197_);
constraint int_eq_reif(X_INTRODUCED_81_,X_INTRODUCED_6_,X_INTRODUCED_198_):: defines_var(X_INTRODUCED_198_);
constraint int_eq_reif(X_INTRODUCED_7_,0,X_INTRODUCED_208_):: defines_var(X_INTRODUCED_208_);
constraint int_eq_reif(X_INTRODUCED_82_,X_INTRODUCED_81_,X_INTRODUCED_209_):: defines_var(X_INTRODUCED_209_);
constraint int_eq_reif(X_INTRODUCED_82_,X_INTRODUCED_7_,X_INTRODUCED_210_):: defines_var(X_INTRODUCED_210_);
constraint int_eq_reif(X_INTRODUCED_8_,0,X_INTRODUCED_220_):: defines_var(X_INTRODUCED_220_);
constraint int_eq_reif(X_INTRODUCED_83_,X_INTRODUCED_82_,X_INTRODUCED_221_):: defines_var(X_INTRODUCED_221_);
constraint int_eq_reif(X_INTRODUCED_83_,X_INTRODUCED_8_,X_INTRODUCED_222_):: defines_var(X_INTRODUCED_222_);
constraint int_eq_reif(X_INTRODUCED_9_,0,X_INTRODUCED_232_):: defines_var(X_INTRODUCED_232_);
constraint int_eq_reif(X_INTRODUCED_84_,X_INTRODUCED_83_,X_INTRODUCED_233_):: defines_var(X_INTRODUCED_233_);
constraint int_eq_reif(X_INTRODUCED_84_,X_INTRODUCED_9_,X_INTRODUCED_234_):: defines_var(X_INTRODUCED_234_);
constraint int_eq_reif(X_INTRODUCED_10_,0,X_INTRODUCED_244_):: defines_var(X_INTRODUCED_244_);
constraint int_eq_reif(X_INTRODUCED_85_,X_INTRODUCED_84_,X_INTRODUCED_245_):: defines_var(X_INTRODUCED_245_);
constraint int_eq_reif(X_INTRODUCED_85_,X_INTRODUCED_10_,X_INTRODUCED_246_):: defines_var(X_INTRODUCED_246_);
constraint int_eq_reif(X_INTRODUCED_11_,0,X_INTRODUCED_256_):: defines_var(X_INTRODUCED_256_);
constraint int_eq_reif(X_INTRODUCED_86_,X_INTRODUCED_85_,X_INTRODUCED_257_):: defines_var(X_INTRODUCED_257_);
constraint int_eq_reif(X_INTRODUCED_86_,X_INTRODUCED_11_,X_INTRODUCED_258_):: defines_var(X_INTRODUCED_258_);
constraint int_eq_reif(X_INTRODUCED_12_,0,X_INTRODUCED_268_):: defines_var(X_INTRODUCED_268_);
constraint int_eq_reif(X_INTRODUCED_87_,X_INTRODUCED_86_,X_INTRODUCED_269_):: defines_var(X_INTRODUCED_269_);
constraint int_eq_reif(X_INTRODUCED_87_,X_INTRODUCED_12_,X_INTRODUCED_270_):: defines_var(X_INTRODUCED_270_);
constraint int_eq_reif(X_INTRODUCED_13_,0,X_INTRODUCED_280_):: defines_var(X_INTRODUCED_280_);
constraint int_eq_reif(X_INTRODUCED_88_,X_INTRODUCED_87_,X_INTRODUCED_281_):: defines_var(X_INTRODUCED_281_);
constraint int_eq_reif(X_INTRODUCED_88_,X_INTRODUCED_13_,X_INTRODUCED_282_):: defines_var(X_INTRODUCED_282_);
constraint int_eq_reif(X_INTRODUCED_14_,0,X_INTRODUCED_292_):: defines_var(X_INTRODUCED_292_);
constraint int_eq_reif(X_INTRODUCED_89_,X_INTRODUCED_88_,X_INTRODUCED_293_):: defines_var(X_INTRODUCED_293_);
constraint int_eq_reif(X_INTRODUCED_89_,X_INTRODUCED_14_,X_INTRODUCED_294_):: defines_var(X_INTRODUCED_294_);
constraint int_eq_reif(X_INTRODUCED_15_,0,X_INTRODUCED_304_):: defines_var(X_INTRODUCED_304_);
constraint int_eq_reif(X_INTRODUCED_90_,X_INTRODUCED_89_,X_INTRODUCED_305_):: defines_var(X_INTRODUCED_305_);
constraint int_eq_reif(X_INTRODUCED_90_,X_INTRODUCED_15_,X_INTRODUCED_306_):: defines_var(X_INTRODUCED_306_);
constraint int_eq_reif(X_INTRODUCED_16_,0,X_INTRODUCED_316_):: defines_var(X_INTRODUCED_316_);
constraint int_eq_reif(X_INTRODUCED_91_,X_INTRODUCED_90_,X_INTRODUCED_317_):: defines_var(X_INTRODUCED_317_);
constraint int_eq_reif(X_INTRODUCED_91_,X_INTRODUCED_16_,X_INTRODUCED_318_):: defines_var(X_INTRODUCED_318_);
constraint int_eq_reif(X_INTRODUCED_17_,0,X_INTRODUCED_328_):: defines_var(X_INTRODUCED_328_);
constraint int_eq_reif(X_INTRODUCED_92_,X_INTRODUCED_91_,X_INTRODUCED_329_):: defines_var(X_INTRODUCED_329_);
constraint int_eq_reif(X_INTRODUCED_92_,X_INTRODUCED_17_,X_INTRODUCED_330_):: defines_var(X_INTRODUCED_330_);
constraint int_eq_reif(X_INTRODUCED_18_,0,X_INTRODUCED_340_):: defines_var(X_INTRODUCED_340_);
constraint int_eq_reif(X_INTRODUCED_93_,X_INTRODUCED_92_,X_INTRODUCED_341_):: defines_var(X_INTRODUCED_341_);
constraint int_eq_reif(X_INTRODUCED_93_,X_INTRODUCED_18_,X_INTRODUCED_342_):: defines_var(X_INTRODUCED_342_);
constraint int_eq_reif(X_INTRODUCED_19_,0,X_INTRODUCED_352_):: defines_var(X_INTRODUCED_352_);
constraint int_eq_reif(X_INTRODUCED_94_,X_INTRODUCED_93_,X_INTRODUCED_353_):: defines_var(X_INTRODUCED_353_);
constraint int_eq_reif(X_INTRODUCED_94_,X_INTRODUCED_19_,X_INTRODUCED_354_):: defines_var(X_INTRODUCED_354_);
constraint int_lin_eq([1,19,-1],[X_INTRODUCED_76_,X_INTRODUCED_0_,X_INTRODUCED_366_],-1):: domain:: defines_var(X_INTRODUCED_366_);
constraint int_lin_eq([1,19,-1],[X_INTRODUCED_77_,X_INTRODUCED_76_,X_INTRODUCED_368_],-1):: domain:: defines_var(X_INTRODUCED_368_);
constraint int_lin_eq([1,19,-1],[X_INTRODUCED_78_,X_INTRODUCED_77_,X_INTRODUCED_370_],-1):: domain:: defines_var(X_INTRODUCED_370_);
constraint int_lin_eq([1,19,-1],[X_INTRODUCED_79_,X_INTRODUCED_78_,X_INTRODUCED_372_],-1):: domain:: defines_var(X_INTRODUCED_372_);
constraint int_lin_eq([1,19,-1],[X_INTRODUCED_80_,X_INTRODUCED_79_,X_INTRODUCED_374_],-1):: domain:: defines_var(X_INTRODUCED_374_);
constraint int_lin_eq([1,19,-1],[X_INTRODUCED_81_,X_INTRODUCED_80_,X_INTRODUCED_376_],-1):: domain:: defines_var(X_INTRODUCED_376_);
constraint int_lin_eq([1,19,-1],[X_INTRODUCED_82_,X_INTRODUCED_81_,X_INTRODUCED_378_],-1):: domain:: defines_var(X_INTRODUCED_378_);
constraint int_lin_eq([1,19,-1],[X_INTRODUCED_83_,X_INTRODUCED_82_,X_INTRODUCED_380_],-1):: domain:: defines_var(X_INTRODUCED_380_);
constraint int_lin_eq([1,19,-1],[X_INTRODUCED_84_,X_INTRODUCED_83_,X_INTRODUCED_382_],-1):: domain:: defines_var(X_INTRODUCED_382_);
constraint int_lin_eq([1,19,-1],[X_INTRODUCED_85_,X_INTRODUCED_84_,X_INTRODUCED_384_],-1):: domain:: defines_var(X_INTRODUCED_384_);
constraint int_lin_eq([1,19,-1],[X_INTRODUCED_86_,X_INTRODUCED_85_,X_INTRODUCED_386_],-1):: domain:: defines_var(X_INTRODUCED_386_);
constraint int_lin_eq([1,19,-1],[X_INTRODUCED_87_,X_INTRODUCED_86_,X_INTRODUCED_388_],-1):: domain:: defines_var(X_INTRODUCED_388_);
constraint int_lin_eq([1,19,-1],[X_INTRODUCED_88_,X_INTRODUCED_87_,X_INTRODUCED_390_],-1):: domain:: defines_var(X_INTRODUCED_390_);
constraint int_lin_eq([1,19,-1],[X_INTRODUCED_89_,X_INTRODUCED_88_,X_INTRODUCED_392_],-1):: domain:: defines_var(X_INTRODUCED_392_);
constraint int_lin_eq([1,19,-1],[X_INTRODUCED_90_,X_INTRODUCED_89_,X_INTRODUCED_394_],-1):: domain:: defines_var(X_INTRODUCED_394_);
constraint int_lin_eq([1,19,-1],[X_INTRODUCED_91_,X_INTRODUCED_90_,X_INTRODUCED_396_],-1):: domain:: defines_var(X_INTRODUCED_396_);
constraint int_lin_eq([1,19,-1],[X_INTRODUCED_92_,X_INTRODUCED_91_,X_INTRODUCED_398_],-1):: domain:: defines_var(X_INTRODUCED_398_);
constraint int_lin_eq([1,19,-1],[X_INTRODUCED_93_,X_INTRODUCED_92_,X_INTRODUCED_400_],-1):: domain:: defines_var(X_INTRODUCED_400_);
constraint int_lin_eq([1,19,-1],[X_INTRODUCED_94_,X_INTRODUCED_93_,X_INTRODUCED_402_],-1):: domain:: defines_var(X_INTRODUCED_402_);
solve :: seq_search([int_search(production_by_order,first_fail,indomain_median,complete),int_search(inventory_periods,first_fail,indomain_min,complete)]) minimize objective;
